(set-info :origin "NTS benchmark converted to SMT-LIB2 using Eldarica (http://lara.epfl.ch/w/eldarica)")
(set-logic HORN)
(declare-fun h1 ((_ BitVec 32) (_ BitVec 32) (_ BitVec 32) (_ BitVec 32) (_ BitVec 32) (_ BitVec 32) (_ BitVec 32) (_ BitVec 32) (_ BitVec 32) (_ BitVec 32) (_ BitVec 32) (_ BitVec 32) (_ BitVec 32) (_ BitVec 32) (_ BitVec 32) (_ BitVec 32) (_ BitVec 32) (_ BitVec 32) (_ BitVec 32) (_ BitVec 32)) Bool)
(declare-fun h2 ((_ BitVec 32) (_ BitVec 32) (_ BitVec 32) (_ BitVec 32) (_ BitVec 32) (_ BitVec 32) (_ BitVec 32) (_ BitVec 32) (_ BitVec 32) (_ BitVec 32) (_ BitVec 32) (_ BitVec 32) (_ BitVec 32) (_ BitVec 32) (_ BitVec 32) (_ BitVec 32) (_ BitVec 32) (_ BitVec 32) (_ BitVec 32) (_ BitVec 32)) Bool)
(declare-fun h3 ((_ BitVec 32) (_ BitVec 32) (_ BitVec 32) (_ BitVec 32) (_ BitVec 32) (_ BitVec 32) (_ BitVec 32) (_ BitVec 32) (_ BitVec 32) (_ BitVec 32) (_ BitVec 32) (_ BitVec 32) (_ BitVec 32) (_ BitVec 32) (_ BitVec 32) (_ BitVec 32) (_ BitVec 32) (_ BitVec 32) (_ BitVec 32) (_ BitVec 32)) Bool)
(declare-fun h4 ((_ BitVec 32) (_ BitVec 32) (_ BitVec 32) (_ BitVec 32) (_ BitVec 32) (_ BitVec 32) (_ BitVec 32) (_ BitVec 32) (_ BitVec 32) (_ BitVec 32) (_ BitVec 32) (_ BitVec 32) (_ BitVec 32) (_ BitVec 32) (_ BitVec 32) (_ BitVec 32) (_ BitVec 32) (_ BitVec 32) (_ BitVec 32) (_ BitVec 32)) Bool)
(declare-fun h5 ((_ BitVec 32) (_ BitVec 32) (_ BitVec 32) (_ BitVec 32) (_ BitVec 32) (_ BitVec 32) (_ BitVec 32) (_ BitVec 32) (_ BitVec 32) (_ BitVec 32) (_ BitVec 32) (_ BitVec 32) (_ BitVec 32) (_ BitVec 32) (_ BitVec 32) (_ BitVec 32) (_ BitVec 32) (_ BitVec 32) (_ BitVec 32) (_ BitVec 32)) Bool)
(declare-fun h6 ((_ BitVec 32) (_ BitVec 32) (_ BitVec 32) (_ BitVec 32) (_ BitVec 32) (_ BitVec 32) (_ BitVec 32) (_ BitVec 32) (_ BitVec 32) (_ BitVec 32) (_ BitVec 32) (_ BitVec 32) (_ BitVec 32) (_ BitVec 32) (_ BitVec 32) (_ BitVec 32) (_ BitVec 32) (_ BitVec 32) (_ BitVec 32) (_ BitVec 32)) Bool)
(declare-fun h7 ((_ BitVec 32) (_ BitVec 32) (_ BitVec 32) (_ BitVec 32) (_ BitVec 32) (_ BitVec 32) (_ BitVec 32) (_ BitVec 32) (_ BitVec 32) (_ BitVec 32) (_ BitVec 32) (_ BitVec 32) (_ BitVec 32) (_ BitVec 32) (_ BitVec 32) (_ BitVec 32) (_ BitVec 32) (_ BitVec 32) (_ BitVec 32) (_ BitVec 32)) Bool)
(declare-fun h8 ((_ BitVec 32) (_ BitVec 32) (_ BitVec 32) (_ BitVec 32) (_ BitVec 32) (_ BitVec 32) (_ BitVec 32) (_ BitVec 32) (_ BitVec 32) (_ BitVec 32) (_ BitVec 32) (_ BitVec 32) (_ BitVec 32) (_ BitVec 32) (_ BitVec 32) (_ BitVec 32) (_ BitVec 32) (_ BitVec 32) (_ BitVec 32) (_ BitVec 32)) Bool)
(declare-fun h9 ((_ BitVec 32) (_ BitVec 32) (_ BitVec 32) (_ BitVec 32) (_ BitVec 32) (_ BitVec 32) (_ BitVec 32) (_ BitVec 32) (_ BitVec 32) (_ BitVec 32) (_ BitVec 32) (_ BitVec 32) (_ BitVec 32) (_ BitVec 32) (_ BitVec 32) (_ BitVec 32) (_ BitVec 32) (_ BitVec 32) (_ BitVec 32) (_ BitVec 32)) Bool)
(declare-fun h10 ((_ BitVec 32) (_ BitVec 32) (_ BitVec 32) (_ BitVec 32) (_ BitVec 32) (_ BitVec 32) (_ BitVec 32) (_ BitVec 32) (_ BitVec 32) (_ BitVec 32) (_ BitVec 32) (_ BitVec 32) (_ BitVec 32) (_ BitVec 32) (_ BitVec 32) (_ BitVec 32) (_ BitVec 32) (_ BitVec 32) (_ BitVec 32) (_ BitVec 32)) Bool)
(declare-fun h11 ((_ BitVec 32) (_ BitVec 32) (_ BitVec 32) (_ BitVec 32) (_ BitVec 32) (_ BitVec 32) (_ BitVec 32) (_ BitVec 32) (_ BitVec 32) (_ BitVec 32) (_ BitVec 32) (_ BitVec 32) (_ BitVec 32) (_ BitVec 32) (_ BitVec 32) (_ BitVec 32) (_ BitVec 32) (_ BitVec 32) (_ BitVec 32) (_ BitVec 32)) Bool)
(declare-fun h12 ((_ BitVec 32) (_ BitVec 32) (_ BitVec 32) (_ BitVec 32) (_ BitVec 32) (_ BitVec 32) (_ BitVec 32) (_ BitVec 32) (_ BitVec 32) (_ BitVec 32) (_ BitVec 32) (_ BitVec 32) (_ BitVec 32) (_ BitVec 32) (_ BitVec 32) (_ BitVec 32) (_ BitVec 32) (_ BitVec 32) (_ BitVec 32) (_ BitVec 32)) Bool)
(declare-fun h13 ((_ BitVec 32) (_ BitVec 32) (_ BitVec 32) (_ BitVec 32) (_ BitVec 32) (_ BitVec 32) (_ BitVec 32) (_ BitVec 32) (_ BitVec 32) (_ BitVec 32) (_ BitVec 32) (_ BitVec 32) (_ BitVec 32) (_ BitVec 32) (_ BitVec 32) (_ BitVec 32) (_ BitVec 32) (_ BitVec 32) (_ BitVec 32) (_ BitVec 32)) Bool)
(declare-fun h14 ((_ BitVec 32) (_ BitVec 32) (_ BitVec 32) (_ BitVec 32) (_ BitVec 32) (_ BitVec 32) (_ BitVec 32) (_ BitVec 32) (_ BitVec 32) (_ BitVec 32) (_ BitVec 32) (_ BitVec 32) (_ BitVec 32) (_ BitVec 32) (_ BitVec 32) (_ BitVec 32) (_ BitVec 32) (_ BitVec 32) (_ BitVec 32) (_ BitVec 32)) Bool)
(declare-fun h15 ((_ BitVec 32) (_ BitVec 32) (_ BitVec 32) (_ BitVec 32) (_ BitVec 32) (_ BitVec 32) (_ BitVec 32) (_ BitVec 32) (_ BitVec 32) (_ BitVec 32) (_ BitVec 32) (_ BitVec 32) (_ BitVec 32) (_ BitVec 32) (_ BitVec 32) (_ BitVec 32) (_ BitVec 32) (_ BitVec 32) (_ BitVec 32) (_ BitVec 32)) Bool)
(declare-fun h16 ((_ BitVec 32) (_ BitVec 32) (_ BitVec 32) (_ BitVec 32) (_ BitVec 32) (_ BitVec 32) (_ BitVec 32) (_ BitVec 32) (_ BitVec 32) (_ BitVec 32) (_ BitVec 32) (_ BitVec 32) (_ BitVec 32) (_ BitVec 32) (_ BitVec 32) (_ BitVec 32) (_ BitVec 32) (_ BitVec 32) (_ BitVec 32) (_ BitVec 32)) Bool)
(declare-fun h17 ((_ BitVec 32) (_ BitVec 32) (_ BitVec 32) (_ BitVec 32) (_ BitVec 32) (_ BitVec 32) (_ BitVec 32) (_ BitVec 32) (_ BitVec 32) (_ BitVec 32) (_ BitVec 32) (_ BitVec 32) (_ BitVec 32) (_ BitVec 32) (_ BitVec 32) (_ BitVec 32) (_ BitVec 32) (_ BitVec 32) (_ BitVec 32) (_ BitVec 32)) Bool)
(declare-fun h18 ((_ BitVec 32) (_ BitVec 32) (_ BitVec 32) (_ BitVec 32) (_ BitVec 32) (_ BitVec 32) (_ BitVec 32) (_ BitVec 32) (_ BitVec 32) (_ BitVec 32) (_ BitVec 32) (_ BitVec 32) (_ BitVec 32) (_ BitVec 32) (_ BitVec 32) (_ BitVec 32) (_ BitVec 32) (_ BitVec 32) (_ BitVec 32) (_ BitVec 32)) Bool)
(declare-fun h19 ((_ BitVec 32) (_ BitVec 32) (_ BitVec 32) (_ BitVec 32) (_ BitVec 32) (_ BitVec 32) (_ BitVec 32) (_ BitVec 32) (_ BitVec 32) (_ BitVec 32) (_ BitVec 32) (_ BitVec 32) (_ BitVec 32) (_ BitVec 32) (_ BitVec 32) (_ BitVec 32) (_ BitVec 32) (_ BitVec 32) (_ BitVec 32) (_ BitVec 32)) Bool)
(declare-fun h20 ((_ BitVec 32) (_ BitVec 32) (_ BitVec 32) (_ BitVec 32) (_ BitVec 32) (_ BitVec 32) (_ BitVec 32) (_ BitVec 32) (_ BitVec 32) (_ BitVec 32) (_ BitVec 32) (_ BitVec 32) (_ BitVec 32) (_ BitVec 32) (_ BitVec 32) (_ BitVec 32) (_ BitVec 32) (_ BitVec 32) (_ BitVec 32) (_ BitVec 32)) Bool)
(declare-fun h21 ((_ BitVec 32) (_ BitVec 32) (_ BitVec 32) (_ BitVec 32) (_ BitVec 32) (_ BitVec 32) (_ BitVec 32) (_ BitVec 32) (_ BitVec 32) (_ BitVec 32) (_ BitVec 32) (_ BitVec 32) (_ BitVec 32) (_ BitVec 32) (_ BitVec 32) (_ BitVec 32) (_ BitVec 32) (_ BitVec 32) (_ BitVec 32) (_ BitVec 32)) Bool)
(declare-fun h22 ((_ BitVec 32) (_ BitVec 32) (_ BitVec 32) (_ BitVec 32) (_ BitVec 32) (_ BitVec 32) (_ BitVec 32) (_ BitVec 32) (_ BitVec 32) (_ BitVec 32) (_ BitVec 32) (_ BitVec 32) (_ BitVec 32) (_ BitVec 32) (_ BitVec 32) (_ BitVec 32) (_ BitVec 32) (_ BitVec 32) (_ BitVec 32) (_ BitVec 32)) Bool)
(declare-fun h23 ((_ BitVec 32) (_ BitVec 32) (_ BitVec 32) (_ BitVec 32) (_ BitVec 32) (_ BitVec 32) (_ BitVec 32) (_ BitVec 32) (_ BitVec 32) (_ BitVec 32) (_ BitVec 32) (_ BitVec 32) (_ BitVec 32) (_ BitVec 32) (_ BitVec 32) (_ BitVec 32) (_ BitVec 32) (_ BitVec 32) (_ BitVec 32) (_ BitVec 32)) Bool)
(declare-fun h24 ((_ BitVec 32) (_ BitVec 32) (_ BitVec 32) (_ BitVec 32) (_ BitVec 32) (_ BitVec 32) (_ BitVec 32) (_ BitVec 32) (_ BitVec 32) (_ BitVec 32) (_ BitVec 32) (_ BitVec 32) (_ BitVec 32) (_ BitVec 32) (_ BitVec 32) (_ BitVec 32) (_ BitVec 32) (_ BitVec 32) (_ BitVec 32) (_ BitVec 32)) Bool)
(declare-fun h25 ((_ BitVec 32) (_ BitVec 32) (_ BitVec 32) (_ BitVec 32) (_ BitVec 32) (_ BitVec 32) (_ BitVec 32) (_ BitVec 32) (_ BitVec 32) (_ BitVec 32) (_ BitVec 32) (_ BitVec 32) (_ BitVec 32) (_ BitVec 32) (_ BitVec 32) (_ BitVec 32) (_ BitVec 32) (_ BitVec 32) (_ BitVec 32) (_ BitVec 32)) Bool)
(declare-fun h26 ((_ BitVec 32) (_ BitVec 32) (_ BitVec 32) (_ BitVec 32) (_ BitVec 32) (_ BitVec 32) (_ BitVec 32) (_ BitVec 32) (_ BitVec 32) (_ BitVec 32) (_ BitVec 32) (_ BitVec 32) (_ BitVec 32) (_ BitVec 32) (_ BitVec 32) (_ BitVec 32) (_ BitVec 32) (_ BitVec 32) (_ BitVec 32) (_ BitVec 32)) Bool)
(declare-fun h27 ((_ BitVec 32) (_ BitVec 32) (_ BitVec 32) (_ BitVec 32) (_ BitVec 32) (_ BitVec 32) (_ BitVec 32) (_ BitVec 32) (_ BitVec 32) (_ BitVec 32) (_ BitVec 32) (_ BitVec 32) (_ BitVec 32) (_ BitVec 32) (_ BitVec 32) (_ BitVec 32) (_ BitVec 32) (_ BitVec 32) (_ BitVec 32) (_ BitVec 32)) Bool)
(declare-fun h28 ((_ BitVec 32) (_ BitVec 32) (_ BitVec 32) (_ BitVec 32) (_ BitVec 32) (_ BitVec 32) (_ BitVec 32) (_ BitVec 32) (_ BitVec 32) (_ BitVec 32) (_ BitVec 32) (_ BitVec 32) (_ BitVec 32) (_ BitVec 32) (_ BitVec 32) (_ BitVec 32) (_ BitVec 32) (_ BitVec 32) (_ BitVec 32) (_ BitVec 32)) Bool)
(declare-fun h29 ((_ BitVec 32) (_ BitVec 32) (_ BitVec 32) (_ BitVec 32) (_ BitVec 32) (_ BitVec 32) (_ BitVec 32) (_ BitVec 32) (_ BitVec 32) (_ BitVec 32) (_ BitVec 32) (_ BitVec 32) (_ BitVec 32) (_ BitVec 32) (_ BitVec 32) (_ BitVec 32) (_ BitVec 32) (_ BitVec 32) (_ BitVec 32) (_ BitVec 32)) Bool)
(declare-fun h30 ((_ BitVec 32) (_ BitVec 32) (_ BitVec 32) (_ BitVec 32) (_ BitVec 32) (_ BitVec 32) (_ BitVec 32) (_ BitVec 32) (_ BitVec 32) (_ BitVec 32) (_ BitVec 32) (_ BitVec 32) (_ BitVec 32) (_ BitVec 32) (_ BitVec 32) (_ BitVec 32) (_ BitVec 32) (_ BitVec 32) (_ BitVec 32) (_ BitVec 32)) Bool)
(declare-fun h31 ((_ BitVec 32) (_ BitVec 32) (_ BitVec 32) (_ BitVec 32) (_ BitVec 32) (_ BitVec 32) (_ BitVec 32) (_ BitVec 32) (_ BitVec 32) (_ BitVec 32) (_ BitVec 32) (_ BitVec 32) (_ BitVec 32) (_ BitVec 32) (_ BitVec 32) (_ BitVec 32) (_ BitVec 32) (_ BitVec 32) (_ BitVec 32) (_ BitVec 32)) Bool)
(assert (forall ((A (_ BitVec 32)) (B (_ BitVec 32)) (C (_ BitVec 32)) (D (_ BitVec 32)) (E (_ BitVec 32)) (F (_ BitVec 32)) (G (_ BitVec 32)) (H (_ BitVec 32)) (I (_ BitVec 32)) (J (_ BitVec 32)))(=> (= (_ bv1 32) (_ bv1 32)) (h1 A B C D E F G H I J A B C D E F G H I J))))
(assert (forall ((A (_ BitVec 32)) (B (_ BitVec 32)) (C (_ BitVec 32)) (D (_ BitVec 32)) (E (_ BitVec 32)) (F (_ BitVec 32)) (G (_ BitVec 32)) (H (_ BitVec 32)) (I (_ BitVec 32)) (J (_ BitVec 32)) (K (_ BitVec 32)) (L (_ BitVec 32)) (M (_ BitVec 32)) (N (_ BitVec 32)) (O (_ BitVec 32)) (P (_ BitVec 32)) (Q (_ BitVec 32)) (R (_ BitVec 32)) (S (_ BitVec 32)) (T (_ BitVec 32)))(=> (h1 A B C D E F G H I J K L M N O P Q R S T) (h2 A B C D E F G H I J K L M N O P Q R S T))))
(assert (forall ((A (_ BitVec 32)) (B (_ BitVec 32)) (C (_ BitVec 32)) (D (_ BitVec 32)) (E (_ BitVec 32)) (F (_ BitVec 32)) (G (_ BitVec 32)) (H (_ BitVec 32)) (I (_ BitVec 32)) (J (_ BitVec 32)) (K (_ BitVec 32)) (L (_ BitVec 32)) (M (_ BitVec 32)) (N (_ BitVec 32)) (O (_ BitVec 32)) (P (_ BitVec 32)) (Q (_ BitVec 32)) (R (_ BitVec 32)) (S (_ BitVec 32)) (T (_ BitVec 32)))(=> (and (bvsge K (_ bv1 32)) (h2 A B C D E F G H I J K L M N O P Q R S T)) (h3 A B C D E F G H I J K L M N O P Q R S T))))
(assert (forall ((A (_ BitVec 32)) (B (_ BitVec 32)) (C (_ BitVec 32)) (D (_ BitVec 32)) (E (_ BitVec 32)) (F (_ BitVec 32)) (G (_ BitVec 32)) (H (_ BitVec 32)) (I (_ BitVec 32)) (J (_ BitVec 32)) (K (_ BitVec 32)) (L (_ BitVec 32)) (M (_ BitVec 32)) (N (_ BitVec 32)) (O (_ BitVec 32)) (P (_ BitVec 32)) (Q (_ BitVec 32)) (R (_ BitVec 32)) (S (_ BitVec 32)) (T (_ BitVec 32)) (U (_ BitVec 32)) (V (_ BitVec 32)) (W (_ BitVec 32)) (X (_ BitVec 32)) (Y (_ BitVec 32)) (Z (_ BitVec 32)))(=> (and (and (and (and (and (and (= M (_ bv0 32)) (= N (_ bv0 32))) (= P (_ bv0 32))) (= R (_ bv0 32))) (= K Q)) (= O Q)) (h3 A B C D E F G H I J K L U V W X Y Z S T)) (h4 A B C D E F G H I J K L M N O P Q R S T))))
(assert (forall ((A (_ BitVec 32)) (B (_ BitVec 32)) (C (_ BitVec 32)) (D (_ BitVec 32)) (E (_ BitVec 32)) (F (_ BitVec 32)) (G (_ BitVec 32)) (H (_ BitVec 32)) (I (_ BitVec 32)) (J (_ BitVec 32)) (K (_ BitVec 32)) (L (_ BitVec 32)) (M (_ BitVec 32)) (N (_ BitVec 32)) (O (_ BitVec 32)) (P (_ BitVec 32)) (Q (_ BitVec 32)) (R (_ BitVec 32)) (S (_ BitVec 32)) (T (_ BitVec 32)))(=> (and (bvsle K (_ bv0 32)) (h2 A B C D E F G H I J K L M N O P Q R S T)) (h5 A B C D E F G H I J K L M N O P Q R S T))))
(assert (forall ((A (_ BitVec 32)) (B (_ BitVec 32)) (C (_ BitVec 32)) (D (_ BitVec 32)) (E (_ BitVec 32)) (F (_ BitVec 32)) (G (_ BitVec 32)) (H (_ BitVec 32)) (I (_ BitVec 32)) (J (_ BitVec 32)) (K (_ BitVec 32)) (L (_ BitVec 32)) (M (_ BitVec 32)) (N (_ BitVec 32)) (O (_ BitVec 32)) (P (_ BitVec 32)) (Q (_ BitVec 32)) (R (_ BitVec 32)) (S (_ BitVec 32)) (T (_ BitVec 32)))(=> (h5 A B C D E F G H I J K L M N O P Q R S T) (h6 A B C D E F G H I J K L M N O P Q R S T))))
(assert (forall ((A (_ BitVec 32)) (B (_ BitVec 32)) (C (_ BitVec 32)) (D (_ BitVec 32)) (E (_ BitVec 32)) (F (_ BitVec 32)) (G (_ BitVec 32)) (H (_ BitVec 32)) (I (_ BitVec 32)) (J (_ BitVec 32)) (K (_ BitVec 32)) (L (_ BitVec 32)) (M (_ BitVec 32)) (N (_ BitVec 32)) (O (_ BitVec 32)) (P (_ BitVec 32)) (Q (_ BitVec 32)) (R (_ BitVec 32)) (S (_ BitVec 32)) (T (_ BitVec 32)) (U (_ BitVec 32)))(=> (and (= T (_ bv0 32)) (h6 A B C D E F G H I J K L M N O P Q R S U)) (h7 A B C D E F G H I J K L M N O P Q R S T))))
(assert (forall ((A (_ BitVec 32)) (B (_ BitVec 32)) (C (_ BitVec 32)) (D (_ BitVec 32)) (E (_ BitVec 32)) (F (_ BitVec 32)) (G (_ BitVec 32)) (H (_ BitVec 32)) (I (_ BitVec 32)) (J (_ BitVec 32)) (K (_ BitVec 32)) (L (_ BitVec 32)) (M (_ BitVec 32)) (N (_ BitVec 32)) (O (_ BitVec 32)) (P (_ BitVec 32)) (Q (_ BitVec 32)) (R (_ BitVec 32)) (S (_ BitVec 32)) (T (_ BitVec 32)))(=> (h4 A B C D E F G H I J K L M N O P Q R S T) (h8 A B C D E F G H I J K L M N O P Q R S T))))
(assert (forall ((A (_ BitVec 32)) (B (_ BitVec 32)) (C (_ BitVec 32)) (D (_ BitVec 32)) (E (_ BitVec 32)) (F (_ BitVec 32)) (G (_ BitVec 32)) (H (_ BitVec 32)) (I (_ BitVec 32)) (J (_ BitVec 32)) (K (_ BitVec 32)) (L (_ BitVec 32)) (M (_ BitVec 32)) (N (_ BitVec 32)) (O (_ BitVec 32)) (P (_ BitVec 32)) (Q (_ BitVec 32)) (R (_ BitVec 32)) (S (_ BitVec 32)) (T (_ BitVec 32)))(=> (h8 A B C D E F G H I J K L M N O P Q R S T) (h9 A B C D E F G H I J K L M N O P Q R S T))))
(assert (forall ((A (_ BitVec 32)) (B (_ BitVec 32)) (C (_ BitVec 32)) (D (_ BitVec 32)) (E (_ BitVec 32)) (F (_ BitVec 32)) (G (_ BitVec 32)) (H (_ BitVec 32)) (I (_ BitVec 32)) (J (_ BitVec 32)) (K (_ BitVec 32)) (L (_ BitVec 32)) (M (_ BitVec 32)) (N (_ BitVec 32)) (O (_ BitVec 32)) (P (_ BitVec 32)) (Q (_ BitVec 32)) (R (_ BitVec 32)) (S (_ BitVec 32)) (T (_ BitVec 32)))(=> (h9 A B C D E F G H I J K L M N O P Q R S T) (h10 A B C D E F G H I J K L M N O P Q R S T))))
(assert (forall ((A (_ BitVec 32)) (B (_ BitVec 32)) (C (_ BitVec 32)) (D (_ BitVec 32)) (E (_ BitVec 32)) (F (_ BitVec 32)) (G (_ BitVec 32)) (H (_ BitVec 32)) (I (_ BitVec 32)) (J (_ BitVec 32)) (K (_ BitVec 32)) (L (_ BitVec 32)) (M (_ BitVec 32)) (N (_ BitVec 32)) (O (_ BitVec 32)) (P (_ BitVec 32)) (Q (_ BitVec 32)) (R (_ BitVec 32)) (S (_ BitVec 32)) (T (_ BitVec 32)))(=> (h10 A B C D E F G H I J K L M N O P Q R S T) (h11 A B C D E F G H I J K L M N O P Q R S T))))
(assert (forall ((A (_ BitVec 32)) (B (_ BitVec 32)) (C (_ BitVec 32)) (D (_ BitVec 32)) (E (_ BitVec 32)) (F (_ BitVec 32)) (G (_ BitVec 32)) (H (_ BitVec 32)) (I (_ BitVec 32)) (J (_ BitVec 32)) (K (_ BitVec 32)) (L (_ BitVec 32)) (M (_ BitVec 32)) (N (_ BitVec 32)) (O (_ BitVec 32)) (P (_ BitVec 32)) (Q (_ BitVec 32)) (R (_ BitVec 32)) (S (_ BitVec 32)) (T (_ BitVec 32)))(=> (and (bvsge (bvadd (bvsub P Q) R) (_ bv0 32)) (h11 A B C D E F G H I J K L M N O P Q R S T)) (h12 A B C D E F G H I J K L M N O P Q R S T))))
(assert (forall ((A (_ BitVec 32)) (B (_ BitVec 32)) (C (_ BitVec 32)) (D (_ BitVec 32)) (E (_ BitVec 32)) (F (_ BitVec 32)) (G (_ BitVec 32)) (H (_ BitVec 32)) (I (_ BitVec 32)) (J (_ BitVec 32)) (K (_ BitVec 32)) (L (_ BitVec 32)) (M (_ BitVec 32)) (N (_ BitVec 32)) (O (_ BitVec 32)) (P (_ BitVec 32)) (Q (_ BitVec 32)) (R (_ BitVec 32)) (S (_ BitVec 32)) (T (_ BitVec 32)))(=> (h12 A B C D E F G H I J K L M N O P Q R S T) (h13 A B C D E F G H I J K L M N O P Q R S T))))
(assert (forall ((A (_ BitVec 32)) (B (_ BitVec 32)) (C (_ BitVec 32)) (D (_ BitVec 32)) (E (_ BitVec 32)) (F (_ BitVec 32)) (G (_ BitVec 32)) (H (_ BitVec 32)) (I (_ BitVec 32)) (J (_ BitVec 32)) (K (_ BitVec 32)) (L (_ BitVec 32)) (M (_ BitVec 32)) (N (_ BitVec 32)) (O (_ BitVec 32)) (P (_ BitVec 32)) (Q (_ BitVec 32)) (R (_ BitVec 32)) (S (_ BitVec 32)) (T (_ BitVec 32)))(=> (and (bvsle (bvadd (bvsub P Q) R) (bvneg (_ bv1 32))) (h11 A B C D E F G H I J K L M N O P Q R S T)) (h14 A B C D E F G H I J K L M N O P Q R S T))))
(assert (forall ((A (_ BitVec 32)) (B (_ BitVec 32)) (C (_ BitVec 32)) (D (_ BitVec 32)) (E (_ BitVec 32)) (F (_ BitVec 32)) (G (_ BitVec 32)) (H (_ BitVec 32)) (I (_ BitVec 32)) (J (_ BitVec 32)) (K (_ BitVec 32)) (L (_ BitVec 32)) (M (_ BitVec 32)) (N (_ BitVec 32)) (O (_ BitVec 32)) (P (_ BitVec 32)) (Q (_ BitVec 32)) (R (_ BitVec 32)) (S (_ BitVec 32)) (T (_ BitVec 32)) (U (_ BitVec 32)))(=> (and (= U (bvadd (bvneg (_ bv1 32)) R)) (h14 A B C D E F G H I J K L M N O P Q U S T)) (h15 A B C D E F G H I J K L M N O P Q R S T))))
(assert (forall ((A (_ BitVec 32)) (B (_ BitVec 32)) (C (_ BitVec 32)) (D (_ BitVec 32)) (E (_ BitVec 32)) (F (_ BitVec 32)) (G (_ BitVec 32)) (H (_ BitVec 32)) (I (_ BitVec 32)) (J (_ BitVec 32)) (K (_ BitVec 32)) (L (_ BitVec 32)) (M (_ BitVec 32)) (N (_ BitVec 32)) (O (_ BitVec 32)) (P (_ BitVec 32)) (Q (_ BitVec 32)) (R (_ BitVec 32)) (S (_ BitVec 32)) (T (_ BitVec 32)))(=> (h13 A B C D E F G H I J K L M N O P Q R S T) (h16 A B C D E F G H I J K L M N O P Q R S T))))
(assert (forall ((A (_ BitVec 32)) (B (_ BitVec 32)) (C (_ BitVec 32)) (D (_ BitVec 32)) (E (_ BitVec 32)) (F (_ BitVec 32)) (G (_ BitVec 32)) (H (_ BitVec 32)) (I (_ BitVec 32)) (J (_ BitVec 32)) (K (_ BitVec 32)) (L (_ BitVec 32)) (M (_ BitVec 32)) (N (_ BitVec 32)) (O (_ BitVec 32)) (P (_ BitVec 32)) (Q (_ BitVec 32)) (R (_ BitVec 32)) (S (_ BitVec 32)) (T (_ BitVec 32)))(=> (h15 A B C D E F G H I J K L M N O P Q R S T) (h17 A B C D E F G H I J K L M N O P Q R S T))))
(assert (forall ((A (_ BitVec 32)) (B (_ BitVec 32)) (C (_ BitVec 32)) (D (_ BitVec 32)) (E (_ BitVec 32)) (F (_ BitVec 32)) (G (_ BitVec 32)) (H (_ BitVec 32)) (I (_ BitVec 32)) (J (_ BitVec 32)) (K (_ BitVec 32)) (L (_ BitVec 32)) (M (_ BitVec 32)) (N (_ BitVec 32)) (O (_ BitVec 32)) (P (_ BitVec 32)) (Q (_ BitVec 32)) (R (_ BitVec 32)) (S (_ BitVec 32)) (T (_ BitVec 32)))(=> (and (bvsle R (bvneg (_ bv1 32))) (h17 A B C D E F G H I J K L M N O P Q R S T)) (h18 A B C D E F G H I J K L M N O P Q R S T))))
(assert (not (exists ((A (_ BitVec 32)) (B (_ BitVec 32)) (C (_ BitVec 32)) (D (_ BitVec 32)) (E (_ BitVec 32)) (F (_ BitVec 32)) (G (_ BitVec 32)) (H (_ BitVec 32)) (I (_ BitVec 32)) (J (_ BitVec 32)) (K (_ BitVec 32)) (L (_ BitVec 32)) (M (_ BitVec 32)) (N (_ BitVec 32)) (O (_ BitVec 32)) (P (_ BitVec 32)) (Q (_ BitVec 32)) (R (_ BitVec 32)) (S (_ BitVec 32)) (T (_ BitVec 32)))(h18 A B C D E F G H I J K L M N O P Q R S T))))
(assert (forall ((A (_ BitVec 32)) (B (_ BitVec 32)) (C (_ BitVec 32)) (D (_ BitVec 32)) (E (_ BitVec 32)) (F (_ BitVec 32)) (G (_ BitVec 32)) (H (_ BitVec 32)) (I (_ BitVec 32)) (J (_ BitVec 32)) (K (_ BitVec 32)) (L (_ BitVec 32)) (M (_ BitVec 32)) (N (_ BitVec 32)) (O (_ BitVec 32)) (P (_ BitVec 32)) (Q (_ BitVec 32)) (R (_ BitVec 32)) (S (_ BitVec 32)) (T (_ BitVec 32)))(=> (and (bvsge R (_ bv0 32)) (h17 A B C D E F G H I J K L M N O P Q R S T)) (h19 A B C D E F G H I J K L M N O P Q R S T))))
(assert (forall ((A (_ BitVec 32)) (B (_ BitVec 32)) (C (_ BitVec 32)) (D (_ BitVec 32)) (E (_ BitVec 32)) (F (_ BitVec 32)) (G (_ BitVec 32)) (H (_ BitVec 32)) (I (_ BitVec 32)) (J (_ BitVec 32)) (K (_ BitVec 32)) (L (_ BitVec 32)) (M (_ BitVec 32)) (N (_ BitVec 32)) (O (_ BitVec 32)) (P (_ BitVec 32)) (Q (_ BitVec 32)) (R (_ BitVec 32)) (S (_ BitVec 32)) (T (_ BitVec 32)))(=> (h19 A B C D E F G H I J K L M N O P Q R S T) (h20 A B C D E F G H I J K L M N O P Q R S T))))
(assert (forall ((A (_ BitVec 32)) (B (_ BitVec 32)) (C (_ BitVec 32)) (D (_ BitVec 32)) (E (_ BitVec 32)) (F (_ BitVec 32)) (G (_ BitVec 32)) (H (_ BitVec 32)) (I (_ BitVec 32)) (J (_ BitVec 32)) (K (_ BitVec 32)) (L (_ BitVec 32)) (M (_ BitVec 32)) (N (_ BitVec 32)) (O (_ BitVec 32)) (P (_ BitVec 32)) (Q (_ BitVec 32)) (R (_ BitVec 32)) (S (_ BitVec 32)) (T (_ BitVec 32)))(=> (and (bvsle (bvsub K R) (bvneg (_ bv1 32))) (h20 A B C D E F G H I J K L M N O P Q R S T)) (h21 A B C D E F G H I J K L M N O P Q R S T))))
(assert (not (exists ((A (_ BitVec 32)) (B (_ BitVec 32)) (C (_ BitVec 32)) (D (_ BitVec 32)) (E (_ BitVec 32)) (F (_ BitVec 32)) (G (_ BitVec 32)) (H (_ BitVec 32)) (I (_ BitVec 32)) (J (_ BitVec 32)) (K (_ BitVec 32)) (L (_ BitVec 32)) (M (_ BitVec 32)) (N (_ BitVec 32)) (O (_ BitVec 32)) (P (_ BitVec 32)) (Q (_ BitVec 32)) (R (_ BitVec 32)) (S (_ BitVec 32)) (T (_ BitVec 32)))(h21 A B C D E F G H I J K L M N O P Q R S T))))
(assert (forall ((A (_ BitVec 32)) (B (_ BitVec 32)) (C (_ BitVec 32)) (D (_ BitVec 32)) (E (_ BitVec 32)) (F (_ BitVec 32)) (G (_ BitVec 32)) (H (_ BitVec 32)) (I (_ BitVec 32)) (J (_ BitVec 32)) (K (_ BitVec 32)) (L (_ BitVec 32)) (M (_ BitVec 32)) (N (_ BitVec 32)) (O (_ BitVec 32)) (P (_ BitVec 32)) (Q (_ BitVec 32)) (R (_ BitVec 32)) (S (_ BitVec 32)) (T (_ BitVec 32)))(=> (and (bvsge (bvsub K R) (_ bv0 32)) (h20 A B C D E F G H I J K L M N O P Q R S T)) (h22 A B C D E F G H I J K L M N O P Q R S T))))
(assert (forall ((A (_ BitVec 32)) (B (_ BitVec 32)) (C (_ BitVec 32)) (D (_ BitVec 32)) (E (_ BitVec 32)) (F (_ BitVec 32)) (G (_ BitVec 32)) (H (_ BitVec 32)) (I (_ BitVec 32)) (J (_ BitVec 32)) (K (_ BitVec 32)) (L (_ BitVec 32)) (M (_ BitVec 32)) (N (_ BitVec 32)) (O (_ BitVec 32)) (P (_ BitVec 32)) (Q (_ BitVec 32)) (R (_ BitVec 32)) (S (_ BitVec 32)) (T (_ BitVec 32)))(=> (h22 A B C D E F G H I J K L M N O P Q R S T) (h23 A B C D E F G H I J K L M N O P Q R S T))))
(assert (forall ((A (_ BitVec 32)) (B (_ BitVec 32)) (C (_ BitVec 32)) (D (_ BitVec 32)) (E (_ BitVec 32)) (F (_ BitVec 32)) (G (_ BitVec 32)) (H (_ BitVec 32)) (I (_ BitVec 32)) (J (_ BitVec 32)) (K (_ BitVec 32)) (L (_ BitVec 32)) (M (_ BitVec 32)) (N (_ BitVec 32)) (O (_ BitVec 32)) (P (_ BitVec 32)) (Q (_ BitVec 32)) (R (_ BitVec 32)) (S (_ BitVec 32)) (T (_ BitVec 32)))(=> (h23 A B C D E F G H I J K L M N O P Q R S T) (h24 A B C D E F G H I J K L M N O P Q R S T))))
(assert (forall ((A (_ BitVec 32)) (B (_ BitVec 32)) (C (_ BitVec 32)) (D (_ BitVec 32)) (E (_ BitVec 32)) (F (_ BitVec 32)) (G (_ BitVec 32)) (H (_ BitVec 32)) (I (_ BitVec 32)) (J (_ BitVec 32)) (K (_ BitVec 32)) (L (_ BitVec 32)) (M (_ BitVec 32)) (N (_ BitVec 32)) (O (_ BitVec 32)) (P (_ BitVec 32)) (Q (_ BitVec 32)) (R (_ BitVec 32)) (S (_ BitVec 32)) (T (_ BitVec 32)))(=> (h24 A B C D E F G H I J K L M N O P Q R S T) (h25 A B C D E F G H I J K L M N O P Q R S T))))
(assert (forall ((A (_ BitVec 32)) (B (_ BitVec 32)) (C (_ BitVec 32)) (D (_ BitVec 32)) (E (_ BitVec 32)) (F (_ BitVec 32)) (G (_ BitVec 32)) (H (_ BitVec 32)) (I (_ BitVec 32)) (J (_ BitVec 32)) (K (_ BitVec 32)) (L (_ BitVec 32)) (M (_ BitVec 32)) (N (_ BitVec 32)) (O (_ BitVec 32)) (P (_ BitVec 32)) (Q (_ BitVec 32)) (R (_ BitVec 32)) (S (_ BitVec 32)) (T (_ BitVec 32)))(=> (and (bvsle S (bvneg (_ bv1 32))) (h25 A B C D E F G H I J K L M N O P Q R S T)) (h26 A B C D E F G H I J K L M N O P Q R S T))))
(assert (forall ((A (_ BitVec 32)) (B (_ BitVec 32)) (C (_ BitVec 32)) (D (_ BitVec 32)) (E (_ BitVec 32)) (F (_ BitVec 32)) (G (_ BitVec 32)) (H (_ BitVec 32)) (I (_ BitVec 32)) (J (_ BitVec 32)) (K (_ BitVec 32)) (L (_ BitVec 32)) (M (_ BitVec 32)) (N (_ BitVec 32)) (O (_ BitVec 32)) (P (_ BitVec 32)) (Q (_ BitVec 32)) (R (_ BitVec 32)) (S (_ BitVec 32)) (T (_ BitVec 32)))(=> (h26 A B C D E F G H I J K L M N O P Q R S T) (h27 A B C D E F G H I J K L M N O P Q R S T))))
(assert (forall ((A (_ BitVec 32)) (B (_ BitVec 32)) (C (_ BitVec 32)) (D (_ BitVec 32)) (E (_ BitVec 32)) (F (_ BitVec 32)) (G (_ BitVec 32)) (H (_ BitVec 32)) (I (_ BitVec 32)) (J (_ BitVec 32)) (K (_ BitVec 32)) (L (_ BitVec 32)) (M (_ BitVec 32)) (N (_ BitVec 32)) (O (_ BitVec 32)) (P (_ BitVec 32)) (Q (_ BitVec 32)) (R (_ BitVec 32)) (S (_ BitVec 32)) (T (_ BitVec 32)))(=> (and (bvsge S (_ bv1 32)) (h25 A B C D E F G H I J K L M N O P Q R S T)) (h28 A B C D E F G H I J K L M N O P Q R S T))))
(assert (forall ((A (_ BitVec 32)) (B (_ BitVec 32)) (C (_ BitVec 32)) (D (_ BitVec 32)) (E (_ BitVec 32)) (F (_ BitVec 32)) (G (_ BitVec 32)) (H (_ BitVec 32)) (I (_ BitVec 32)) (J (_ BitVec 32)) (K (_ BitVec 32)) (L (_ BitVec 32)) (M (_ BitVec 32)) (N (_ BitVec 32)) (O (_ BitVec 32)) (P (_ BitVec 32)) (Q (_ BitVec 32)) (R (_ BitVec 32)) (S (_ BitVec 32)) (T (_ BitVec 32)))(=> (h28 A B C D E F G H I J K L M N O P Q R S T) (h27 A B C D E F G H I J K L M N O P Q R S T))))
(assert (forall ((A (_ BitVec 32)) (B (_ BitVec 32)) (C (_ BitVec 32)) (D (_ BitVec 32)) (E (_ BitVec 32)) (F (_ BitVec 32)) (G (_ BitVec 32)) (H (_ BitVec 32)) (I (_ BitVec 32)) (J (_ BitVec 32)) (K (_ BitVec 32)) (L (_ BitVec 32)) (M (_ BitVec 32)) (N (_ BitVec 32)) (O (_ BitVec 32)) (P (_ BitVec 32)) (Q (_ BitVec 32)) (R (_ BitVec 32)) (S (_ BitVec 32)) (T (_ BitVec 32)))(=> (and (= S (_ bv0 32)) (h25 A B C D E F G H I J K L M N O P Q R S T)) (h29 A B C D E F G H I J K L M N O P Q R S T))))
(assert (forall ((A (_ BitVec 32)) (B (_ BitVec 32)) (C (_ BitVec 32)) (D (_ BitVec 32)) (E (_ BitVec 32)) (F (_ BitVec 32)) (G (_ BitVec 32)) (H (_ BitVec 32)) (I (_ BitVec 32)) (J (_ BitVec 32)) (K (_ BitVec 32)) (L (_ BitVec 32)) (M (_ BitVec 32)) (N (_ BitVec 32)) (O (_ BitVec 32)) (P (_ BitVec 32)) (Q (_ BitVec 32)) (R (_ BitVec 32)) (S (_ BitVec 32)) (T (_ BitVec 32)))(=> (h29 A B C D E F G H I J K L M N O P Q R S T) (h10 A B C D E F G H I J K L M N O P Q R S T))))
(assert (forall ((A (_ BitVec 32)) (B (_ BitVec 32)) (C (_ BitVec 32)) (D (_ BitVec 32)) (E (_ BitVec 32)) (F (_ BitVec 32)) (G (_ BitVec 32)) (H (_ BitVec 32)) (I (_ BitVec 32)) (J (_ BitVec 32)) (K (_ BitVec 32)) (L (_ BitVec 32)) (M (_ BitVec 32)) (N (_ BitVec 32)) (O (_ BitVec 32)) (P (_ BitVec 32)) (Q (_ BitVec 32)) (R (_ BitVec 32)) (S (_ BitVec 32)) (T (_ BitVec 32)) (U (_ BitVec 32)))(=> (and (= T (_ bv0 32)) (h27 A B C D E F G H I J K L M N O P Q R S U)) (h7 A B C D E F G H I J K L M N O P Q R S T))))
(assert (forall ((A (_ BitVec 32)) (B (_ BitVec 32)) (C (_ BitVec 32)) (D (_ BitVec 32)) (E (_ BitVec 32)) (F (_ BitVec 32)) (G (_ BitVec 32)) (H (_ BitVec 32)) (I (_ BitVec 32)) (J (_ BitVec 32)) (K (_ BitVec 32)) (L (_ BitVec 32)) (M (_ BitVec 32)) (N (_ BitVec 32)) (O (_ BitVec 32)) (P (_ BitVec 32)) (Q (_ BitVec 32)) (R (_ BitVec 32)) (S (_ BitVec 32)) (T (_ BitVec 32)) (U (_ BitVec 32)))(=> (and (= T (_ bv0 32)) (h16 A B C D E F G H I J K L M N O P Q R S U)) (h7 A B C D E F G H I J K L M N O P Q R S T))))
(assert (forall ((A (_ BitVec 32)) (B (_ BitVec 32)) (C (_ BitVec 32)) (D (_ BitVec 32)) (E (_ BitVec 32)) (F (_ BitVec 32)) (G (_ BitVec 32)) (H (_ BitVec 32)) (I (_ BitVec 32)) (J (_ BitVec 32)) (K (_ BitVec 32)) (L (_ BitVec 32)) (M (_ BitVec 32)) (N (_ BitVec 32)) (O (_ BitVec 32)) (P (_ BitVec 32)) (Q (_ BitVec 32)) (R (_ BitVec 32)) (S (_ BitVec 32)) (T (_ BitVec 32)))(=> (h7 A B C D E F G H I J K L M N O P Q R S T) (h30 A B C D E F G H I J K L M N O P Q R S T))))
(assert (forall ((A (_ BitVec 32)) (B (_ BitVec 32)) (C (_ BitVec 32)) (D (_ BitVec 32)) (E (_ BitVec 32)) (F (_ BitVec 32)) (G (_ BitVec 32)) (H (_ BitVec 32)) (I (_ BitVec 32)) (J (_ BitVec 32)) (K (_ BitVec 32)) (L (_ BitVec 32)) (M (_ BitVec 32)) (N (_ BitVec 32)) (O (_ BitVec 32)) (P (_ BitVec 32)) (Q (_ BitVec 32)) (R (_ BitVec 32)) (S (_ BitVec 32)) (T (_ BitVec 32)))(=> (h30 A B C D E F G H I J K L M N O P Q R S T) (h31 A B C D E F G H I J K L M N O P Q R S T))))
(check-sat)
